c CNF file corresponding to a (partial) station packing problem.
p cnf 4985 229
1 2 3 4 5 6 7 8 9 10 11 12 13 14 0
-1 -2 0
-1 -3 0
-1 -4 0
-1 -5 0
-1 -6 0
-1 -7 0
-1 -8 0
-1 -9 0
-1 -10 0
-1 -11 0
-1 -12 0
-1 -13 0
-1 -14 0
-2 -3 0
-2 -4 0
-2 -5 0
-2 -6 0
-2 -7 0
-2 -8 0
-2 -9 0
-2 -10 0
-2 -11 0
-2 -12 0
-2 -13 0
-2 -14 0
-3 -4 0
-3 -5 0
-3 -6 0
-3 -7 0
-3 -8 0
-3 -9 0
-3 -10 0
-3 -11 0
-3 -12 0
-3 -13 0
-3 -14 0
-4 -5 0
-4 -6 0
-4 -7 0
-4 -8 0
-4 -9 0
-4 -10 0
-4 -11 0
-4 -12 0
-4 -13 0
-4 -14 0
-5 -6 0
-5 -7 0
-5 -8 0
-5 -9 0
-5 -10 0
-5 -11 0
-5 -12 0
-5 -13 0
-5 -14 0
-6 -7 0
-6 -8 0
-6 -9 0
-6 -10 0
-6 -11 0
-6 -12 0
-6 -13 0
-6 -14 0
-7 -8 0
-7 -9 0
-7 -10 0
-7 -11 0
-7 -12 0
-7 -13 0
-7 -14 0
-8 -9 0
-8 -10 0
-8 -11 0
-8 -12 0
-8 -13 0
-8 -14 0
-9 -10 0
-9 -11 0
-9 -12 0
-9 -13 0
-9 -14 0
-10 -11 0
-10 -12 0
-10 -13 0
-10 -14 0
-11 -12 0
-11 -13 0
-11 -14 0
-12 -13 0
-12 -14 0
-13 -14 0
4969 4970 4971 4972 4973 4974 4975 4976 4977 4978 4979 4980 4981 4982 4983 4984 4985 0
-4969 -4970 0
-4969 -4971 0
-4969 -4972 0
-4969 -4973 0
-4969 -4974 0
-4969 -4975 0
-4969 -4976 0
-4969 -4977 0
-4969 -4978 0
-4969 -4979 0
-4969 -4980 0
-4969 -4981 0
-4969 -4982 0
-4969 -4983 0
-4969 -4984 0
-4969 -4985 0
-4970 -4971 0
-4970 -4972 0
-4970 -4973 0
-4970 -4974 0
-4970 -4975 0
-4970 -4976 0
-4970 -4977 0
-4970 -4978 0
-4970 -4979 0
-4970 -4980 0
-4970 -4981 0
-4970 -4982 0
-4970 -4983 0
-4970 -4984 0
-4970 -4985 0
-4971 -4972 0
-4971 -4973 0
-4971 -4974 0
-4971 -4975 0
-4971 -4976 0
-4971 -4977 0
-4971 -4978 0
-4971 -4979 0
-4971 -4980 0
-4971 -4981 0
-4971 -4982 0
-4971 -4983 0
-4971 -4984 0
-4971 -4985 0
-4972 -4973 0
-4972 -4974 0
-4972 -4975 0
-4972 -4976 0
-4972 -4977 0
-4972 -4978 0
-4972 -4979 0
-4972 -4980 0
-4972 -4981 0
-4972 -4982 0
-4972 -4983 0
-4972 -4984 0
-4972 -4985 0
-4973 -4974 0
-4973 -4975 0
-4973 -4976 0
-4973 -4977 0
-4973 -4978 0
-4973 -4979 0
-4973 -4980 0
-4973 -4981 0
-4973 -4982 0
-4973 -4983 0
-4973 -4984 0
-4973 -4985 0
-4974 -4975 0
-4974 -4976 0
-4974 -4977 0
-4974 -4978 0
-4974 -4979 0
-4974 -4980 0
-4974 -4981 0
-4974 -4982 0
-4974 -4983 0
-4974 -4984 0
-4974 -4985 0
-4975 -4976 0
-4975 -4977 0
-4975 -4978 0
-4975 -4979 0
-4975 -4980 0
-4975 -4981 0
-4975 -4982 0
-4975 -4983 0
-4975 -4984 0
-4975 -4985 0
-4976 -4977 0
-4976 -4978 0
-4976 -4979 0
-4976 -4980 0
-4976 -4981 0
-4976 -4982 0
-4976 -4983 0
-4976 -4984 0
-4976 -4985 0
-4977 -4978 0
-4977 -4979 0
-4977 -4980 0
-4977 -4981 0
-4977 -4982 0
-4977 -4983 0
-4977 -4984 0
-4977 -4985 0
-4978 -4979 0
-4978 -4980 0
-4978 -4981 0
-4978 -4982 0
-4978 -4983 0
-4978 -4984 0
-4978 -4985 0
-4979 -4980 0
-4979 -4981 0
-4979 -4982 0
-4979 -4983 0
-4979 -4984 0
-4979 -4985 0
-4980 -4981 0
-4980 -4982 0
-4980 -4983 0
-4980 -4984 0
-4980 -4985 0
-4981 -4982 0
-4981 -4983 0
-4981 -4984 0
-4981 -4985 0
-4982 -4983 0
-4982 -4984 0
-4982 -4985 0
-4983 -4984 0
-4983 -4985 0
-4984 -4985 0
